(set-logic QF_S)
(declare-fun var0 () String)
(declare-fun var1 () String)
(declare-fun var2 () String)
(declare-fun var3 () String)
(declare-fun var4 () String)
(declare-fun var5 () String)
(declare-fun var6 () String)
(declare-fun var7 () String)
(declare-fun var8 () String)
(declare-fun var9 () String)
(declare-fun var10 () String)
(declare-fun var11 () String)
(declare-fun var12 () String)
(declare-fun var13 () String)
(declare-fun var14 () String)
(declare-fun var15 () String)
(declare-fun var16 () String)
(declare-fun var17 () String)
(declare-fun var18 () String)
(declare-fun var19 () String)
(declare-fun var20 () String)
(declare-fun var21 () String)
(declare-fun var22 () String)
(declare-fun var23 () String)
(declare-fun var24 () String)
(declare-fun var25 () String)
(declare-fun var26 () String)
(declare-fun var27 () String)
(declare-fun var28 () String)
(declare-fun var29 () String)
(declare-fun var30 () String)
(declare-fun var31 () String)
(declare-fun var32 () String)
(declare-fun var33 () String)
(declare-fun var34 () String)
(declare-fun var35 () String)
(declare-fun var36 () String)
(declare-fun var37 () String)
(declare-fun var38 () String)
(declare-fun var39 () String)
(declare-fun var40 () String)
(declare-fun var41 () String)
(declare-fun var42 () String)
(declare-fun var43 () String)
(declare-fun var44 () String)
(declare-fun var45 () String)
(declare-fun var46 () String)
(declare-fun var47 () String)
(declare-fun var48 () String)
(declare-fun var49 () String)
(declare-fun var50 () String)
(declare-fun var51 () String)
(declare-fun var52 () String)
(declare-fun var53 () String)
(declare-fun var54 () String)
(declare-fun var55 () String)
(declare-fun var56 () String)
(declare-fun var57 () String)
(declare-fun var58 () String)
(declare-fun var59 () String)
(declare-fun var60 () String)
(assert (= var0 (str.++ var1 var2)))
(assert (= var2 (str.++ var3 var4)))
(assert (= var4 (str.++ var5 var6)))
(assert (= var6 (str.++ var7 var8)))
(assert (= var8 (str.++ var9 var10)))
(assert (= var10 (str.++ var11 var12)))
(assert (= var12 (str.++ var13 var14)))
(assert (= var14 (str.++ var15 var16)))
(assert (= var16 (str.++ var17 var18)))
(assert (= var18 (str.++ var19 var20)))
(assert (= var20 (str.++ var21 var22)))
(assert (= var22 (str.++ var23 var24)))
(assert (= var24 (str.++ var25 var26)))
(assert (= var26 (str.++ var27 var28)))
(assert (= var28 (str.++ var29 var30)))
(assert (= var30 (str.++ var31 var32)))
(assert (= var32 (str.++ var33 var34)))
(assert (= var34 (str.++ var35 var36)))
(assert (= var36 (str.++ var37 var38)))
(assert (= var38 (str.++ var39 var40)))
(assert (= var40 (str.++ var41 var42)))
(assert (= var42 (str.++ var43 var44)))
(assert (= var44 (str.++ var45 var46)))
(assert (= var46 (str.++ var47 var48)))
(assert (= var48 (str.++ var49 var50)))
(assert (= var50 (str.++ var51 var52)))
(assert (= var52 (str.++ var53 var54)))
(assert (= var54 (str.++ var55 var56)))
(assert (= var56 (str.++ var57 var58)))
(assert (= var58 (str.++ var59 var60)))
(assert (= var0 "solution"))
(assert (= "G" (str.at var28 476)))
(assert (= "K" (str.at var6 912)))
(assert (= "a" (str.at var50 284)))
(assert (= "," (str.at var39 619)))
(assert (= "j" (str.at var25 346)))
(assert (= "T" (str.at var4 59)))
(assert (= "d" (str.at var46 42)))
(assert (= "7" (str.at var50 912)))
(assert (= "e" (str.at var43 742)))
(assert (= "\\" (str.at var58 163)))
(assert (= "-" (str.at var7 637)))
(assert (= "J" (str.at var28 726)))
(assert (= "H" (str.at var12 952)))
(assert (= "+" (str.at var13 716)))
(assert (= "+" (str.at var12 663)))
(assert (= "$" (str.at var59 89)))
(assert (= "]" (str.at var0 177)))
(assert (= "1" (str.at var57 574)))
(assert (= "?" (str.at var53 335)))
(assert (= "v" (str.at var48 506)))
(assert (= "w" (str.at var3 566)))
(assert (= "^" (str.at var26 778)))
(assert (= "N" (str.at var48 314)))
(assert (= "v" (str.at var59 952)))
(assert (= "M" (str.at var19 999)))
(assert (= "<" (str.at var21 37)))
(assert (= "d" (str.at var19 200)))
(assert (= "_" (str.at var25 426)))
(assert (= "P" (str.at var44 932)))
(assert (= "u" (str.at var18 471)))
(assert (= "6" (str.at var42 408)))
(assert (= "8" (str.at var40 340)))
(assert (= "W" (str.at var23 990)))
(assert (= "n" (str.at var20 182)))
(assert (= "G" (str.at var50 434)))
(assert (= "M" (str.at var18 462)))
(assert (= "U" (str.at var26 582)))
(assert (= "d" (str.at var0 296)))
(assert (= "7" (str.at var44 37)))
(assert (= "0" (str.at var53 974)))
(assert (= "l" (str.at var5 878)))
(assert (= "x" (str.at var24 33)))
(assert (= "*" (str.at var36 565)))
(assert (= "r" (str.at var19 381)))
(assert (= "g" (str.at var53 218)))
(assert (= "`" (str.at var26 115)))
(assert (= "O" (str.at var49 791)))
(assert (= "i" (str.at var2 157)))
(assert (= "L" (str.at var8 489)))
(assert (= "_" (str.at var6 428)))
(assert (= "0" (str.at var24 583)))
(assert (= "[" (str.at var60 783)))
(assert (= "0" (str.at var50 3)))
(assert (= "|" (str.at var48 440)))
(assert (= "m" (str.at var56 785)))
(assert (= "~" (str.at var58 761)))
(assert (= "=" (str.at var50 780)))
(assert (= "9" (str.at var50 336)))
(assert (= "g" (str.at var42 470)))
(assert (= "N" (str.at var32 821)))
(assert (= "g" (str.at var48 683)))
(assert (= "r" (str.at var42 638)))
(assert (= "u" (str.at var49 930)))
(assert (= "p" (str.at var40 700)))
(assert (= "Y" (str.at var14 903)))
(assert (= "r" (str.at var13 636)))
(assert (= """" (str.at var12 879)))
(assert (= "q" (str.at var39 775)))
(assert (= "," (str.at var13 922)))
(assert (= "!" (str.at var13 410)))
(assert (= "g" (str.at var17 21)))
(assert (= "6" (str.at var55 401)))
(assert (= "," (str.at var34 52)))
(assert (= "r" (str.at var33 886)))
(assert (= "%" (str.at var45 495)))
(assert (= "2" (str.at var21 533)))
(assert (= "o" (str.at var52 718)))
(assert (= "$" (str.at var36 708)))
(assert (= "R" (str.at var17 469)))
(assert (= """" (str.at var6 895)))
(assert (= "j" (str.at var24 958)))
(assert (= "0" (str.at var57 648)))
(assert (= "o" (str.at var34 1)))
(assert (= "/" (str.at var4 131)))
(assert (= "2" (str.at var31 145)))
(assert (= "u" (str.at var14 633)))
(assert (= "0" (str.at var48 12)))
(assert (= "x" (str.at var44 938)))
(assert (= "k" (str.at var46 21)))
(assert (= "=" (str.at var26 542)))
(assert (= "<" (str.at var5 284)))
(assert (= "h" (str.at var28 209)))
(assert (= "/" (str.at var1 643)))
(assert (= "#" (str.at var57 869)))
(assert (= "d" (str.at var51 794)))
(assert (= "V" (str.at var6 881)))
(assert (= "N" (str.at var19 497)))
(assert (= "|" (str.at var50 456)))
(assert (= "N" (str.at var34 607)))
(assert (= "A" (str.at var50 929)))
(assert (= "X" (str.at var48 850)))
(assert (= "9" (str.at var21 390)))
(assert (= "\\" (str.at var32 137)))
(assert (= "z" (str.at var3 606)))
(assert (= "%" (str.at var37 695)))
(assert (= "%" (str.at var30 117)))
(assert (= "T" (str.at var18 848)))
(assert (= "V" (str.at var52 861)))
(assert (= "u" (str.at var59 278)))
(assert (= "q" (str.at var54 248)))
(assert (= "," (str.at var37 450)))
(assert (= "F" (str.at var42 248)))
(assert (= ">" (str.at var1 756)))
(assert (= "%" (str.at var7 258)))
(assert (= "6" (str.at var59 345)))
(assert (= "2" (str.at var27 110)))
(assert (= "/" (str.at var3 633)))
(assert (= "r" (str.at var0 846)))
(assert (= "g" (str.at var34 935)))
(assert (= "0" (str.at var15 211)))
(assert (= "D" (str.at var35 446)))
(assert (= "y" (str.at var48 170)))
(assert (= "j" (str.at var14 48)))
(assert (= "M" (str.at var34 3)))
(assert (= "b" (str.at var42 579)))
(assert (= "q" (str.at var31 672)))
(assert (= "$" (str.at var47 391)))
(assert (= "D" (str.at var57 327)))
(assert (= "n" (str.at var58 65)))
(assert (= "|" (str.at var23 441)))
(assert (= "I" (str.at var29 869)))
(assert (= "'" (str.at var45 865)))
(assert (= "@" (str.at var40 367)))
(assert (= "Y" (str.at var3 520)))
(assert (= "t" (str.at var0 680)))
(assert (= "~" (str.at var27 389)))
(assert (= "y" (str.at var44 878)))
(assert (= "g" (str.at var5 249)))
(assert (= "/" (str.at var27 990)))
(assert (= "i" (str.at var19 711)))
(assert (= "0" (str.at var0 883)))
(assert (= "u" (str.at var20 286)))
(assert (= "A" (str.at var38 517)))
(assert (= "I" (str.at var50 85)))
(assert (= "S" (str.at var46 918)))
(assert (= "g" (str.at var7 993)))
(assert (= "X" (str.at var35 127)))
(assert (= "l" (str.at var18 769)))
(assert (= "z" (str.at var14 29)))
(assert (= "c" (str.at var9 821)))
(assert (= "3" (str.at var59 542)))
(assert (= "," (str.at var57 562)))
(assert (= "f" (str.at var7 526)))
(assert (= "W" (str.at var34 887)))
(assert (= "!" (str.at var24 984)))
(assert (= "w" (str.at var13 652)))
(assert (= "*" (str.at var58 807)))
(assert (= "&" (str.at var36 270)))
(assert (= "l" (str.at var3 231)))
(assert (= "I" (str.at var21 945)))
(assert (= "^" (str.at var5 300)))
(assert (= "T" (str.at var53 830)))
(assert (= "O" (str.at var42 352)))
(assert (= "t" (str.at var21 898)))
(assert (= "-" (str.at var43 576)))
(assert (= "v" (str.at var35 908)))
(assert (= "_" (str.at var23 741)))
(assert (= "b" (str.at var20 383)))
(assert (= "~" (str.at var4 451)))
(assert (= "t" (str.at var5 436)))
(assert (= "l" (str.at var39 392)))
(assert (= "8" (str.at var7 512)))
(assert (= "M" (str.at var23 418)))
(assert (= "`" (str.at var26 913)))
(assert (= "i" (str.at var47 218)))
(assert (= "J" (str.at var56 210)))
(assert (= "e" (str.at var17 832)))
(assert (= "%" (str.at var23 787)))
(assert (= "O" (str.at var3 320)))
(assert (= "_" (str.at var41 854)))
(assert (= "^" (str.at var11 84)))
(assert (= "{" (str.at var4 725)))
(assert (= "." (str.at var33 634)))
(assert (= "z" (str.at var42 79)))
(assert (= "E" (str.at var20 74)))
(assert (= "l" (str.at var0 870)))
(assert (= "s" (str.at var13 173)))
(assert (= "*" (str.at var34 568)))
(assert (= "f" (str.at var59 203)))
(assert (= "s" (str.at var17 628)))
(assert (= "]" (str.at var51 116)))
(assert (= "C" (str.at var4 267)))
(assert (= "s" (str.at var21 299)))
(assert (= "k" (str.at var37 102)))
(assert (= "t" (str.at var43 729)))
(assert (= "J" (str.at var6 900)))
(assert (= "b" (str.at var23 815)))
(assert (= "J" (str.at var55 250)))
(assert (= "Y" (str.at var28 227)))
(assert (= "7" (str.at var2 352)))
(assert (= "X" (str.at var13 689)))
(assert (= """" (str.at var18 171)))
(assert (= "7" (str.at var19 898)))
(assert (= "]" (str.at var4 732)))
(assert (= "c" (str.at var36 620)))
(assert (= """" (str.at var41 372)))
(assert (= "E" (str.at var25 698)))
(assert (= "q" (str.at var38 920)))
(assert (= "E" (str.at var32 738)))
(assert (= "Z" (str.at var14 854)))
(assert (= "p" (str.at var14 216)))
(assert (= "J" (str.at var30 75)))
(assert (= "@" (str.at var20 541)))
(assert (= "2" (str.at var32 846)))
(assert (= ">" (str.at var30 3)))
(assert (= "`" (str.at var40 737)))
(assert (= "3" (str.at var23 563)))
(assert (= "d" (str.at var43 46)))
(assert (= "F" (str.at var25 507)))
(assert (= "U" (str.at var2 341)))
(assert (= "[" (str.at var23 105)))
(assert (= "#" (str.at var33 450)))
(assert (= "T" (str.at var7 655)))
(assert (= "V" (str.at var17 210)))
(assert (= "~" (str.at var49 590)))
(assert (= "6" (str.at var12 516)))
(assert (= "u" (str.at var26 308)))
(assert (= "?" (str.at var37 88)))
(assert (= "?" (str.at var22 645)))
(assert (= "2" (str.at var31 657)))
(assert (= "a" (str.at var40 174)))
(assert (= "2" (str.at var32 415)))
(assert (= "x" (str.at var45 218)))
(assert (= "(" (str.at var13 250)))
(assert (= """" (str.at var40 859)))
(assert (= "#" (str.at var53 295)))
(assert (= ")" (str.at var47 995)))
(assert (= "0" (str.at var18 591)))
(assert (= "S" (str.at var19 406)))
(assert (= "#" (str.at var1 993)))
(assert (= "p" (str.at var53 387)))
(assert (= "/" (str.at var12 495)))
(assert (= "3" (str.at var8 215)))
(assert (= "'" (str.at var6 526)))
(assert (= "V" (str.at var20 871)))
(assert (= "q" (str.at var39 93)))
(assert (= "h" (str.at var30 436)))
(assert (= "T" (str.at var25 892)))
(assert (= "[" (str.at var24 69)))
(assert (= "U" (str.at var33 704)))
(assert (= "2" (str.at var22 507)))
(assert (= "5" (str.at var56 518)))
(assert (= "6" (str.at var48 978)))
(assert (= "$" (str.at var41 339)))
(assert (= "X" (str.at var22 760)))
(assert (= "%" (str.at var11 176)))
(assert (= "Y" (str.at var43 158)))
(assert (= "1" (str.at var29 69)))
(assert (= "8" (str.at var58 37)))
(assert (= "W" (str.at var43 455)))
(assert (= "T" (str.at var57 789)))
(assert (= "K" (str.at var23 240)))
(assert (= """" (str.at var42 145)))
(assert (= "a" (str.at var0 610)))
(assert (= "7" (str.at var39 804)))
(assert (= "G" (str.at var14 531)))
(assert (= "9" (str.at var55 302)))
(assert (= "~" (str.at var5 239)))
(assert (= "Q" (str.at var50 669)))
(assert (= "G" (str.at var15 129)))
(assert (= "*" (str.at var13 455)))
(assert (= "e" (str.at var16 826)))
(assert (= ":" (str.at var9 141)))
(assert (= "0" (str.at var21 838)))
(assert (= "#" (str.at var8 559)))
(assert (= "J" (str.at var51 994)))
(assert (= ")" (str.at var23 794)))
(assert (= "9" (str.at var12 936)))
(assert (= "H" (str.at var6 889)))
(assert (= "J" (str.at var17 992)))
(assert (= ">" (str.at var11 948)))
(assert (= "$" (str.at var6 951)))
(assert (= "S" (str.at var40 260)))
(assert (= "r" (str.at var38 685)))
(assert (= "!" (str.at var6 925)))
(assert (= "/" (str.at var40 966)))
(assert (= "\\" (str.at var23 745)))
(assert (= "q" (str.at var52 574)))
(assert (= "w" (str.at var26 228)))
(assert (= "1" (str.at var16 982)))
(assert (= "(" (str.at var30 872)))
(assert (= "U" (str.at var15 99)))
(assert (= "6" (str.at var36 518)))
(assert (= "_" (str.at var57 425)))
(assert (= "i" (str.at var59 431)))
(assert (= "h" (str.at var16 587)))
(assert (= "N" (str.at var58 261)))
(assert (= "u" (str.at var13 637)))
(assert (= "(" (str.at var56 57)))
(assert (= "V" (str.at var34 496)))
(assert (= "z" (str.at var49 537)))
(assert (= "$" (str.at var56 798)))
(assert (= "4" (str.at var44 178)))
(assert (= "6" (str.at var28 51)))
(assert (= "H" (str.at var4 737)))
(assert (= "]" (str.at var1 952)))
(assert (= "l" (str.at var51 573)))
(assert (= "t" (str.at var12 65)))
(assert (= "O" (str.at var47 756)))
(assert (= "2" (str.at var0 573)))
(assert (= "$" (str.at var35 234)))
(assert (= "B" (str.at var31 247)))
(assert (= "<" (str.at var41 730)))
(assert (= """" (str.at var27 757)))
(assert (= "~" (str.at var20 862)))
(assert (= "t" (str.at var15 506)))
(assert (= "5" (str.at var23 96)))
(assert (= "^" (str.at var8 203)))
(assert (= "#" (str.at var47 505)))
(assert (= "@" (str.at var17 627)))
(assert (= "@" (str.at var33 646)))
(assert (= "/" (str.at var50 765)))
(assert (= "~" (str.at var22 115)))
(assert (= "G" (str.at var60 406)))
(assert (= "X" (str.at var29 781)))
(assert (= "9" (str.at var30 710)))
(assert (= "O" (str.at var24 627)))
(assert (= "#" (str.at var39 46)))
(assert (= "3" (str.at var0 477)))
(assert (= "C" (str.at var47 992)))
(assert (= "$" (str.at var53 916)))
(assert (= "Y" (str.at var12 833)))
(assert (= "k" (str.at var24 341)))
(assert (= "|" (str.at var36 460)))
(assert (= "s" (str.at var8 566)))
(assert (= "6" (str.at var46 611)))
(assert (= "$" (str.at var54 58)))
(assert (= "S" (str.at var52 54)))
(assert (= "4" (str.at var59 535)))
(assert (= "S" (str.at var23 898)))
(assert (= "[" (str.at var41 296)))
(assert (= "^" (str.at var22 878)))
(assert (= "," (str.at var0 966)))
(assert (= """" (str.at var43 250)))
(assert (= "7" (str.at var0 637)))
(assert (= "}" (str.at var58 695)))
(assert (= "4" (str.at var50 420)))
(assert (= "h" (str.at var60 581)))
(assert (= "l" (str.at var17 456)))
(assert (= "=" (str.at var40 479)))
(assert (= "A" (str.at var55 35)))
(assert (= "0" (str.at var57 749)))
(assert (= "w" (str.at var39 76)))
(assert (= "N" (str.at var20 686)))
(assert (= "-" (str.at var20 159)))
(assert (= "w" (str.at var60 608)))
(assert (= "g" (str.at var9 482)))
(assert (= "H" (str.at var59 147)))
(assert (= "`" (str.at var55 445)))
(assert (= "m" (str.at var2 633)))
(assert (= "?" (str.at var35 833)))
(assert (= "f" (str.at var28 640)))
(assert (= "H" (str.at var58 564)))
(assert (= "W" (str.at var30 763)))
(assert (= "#" (str.at var7 373)))
(assert (= "(" (str.at var29 542)))
(assert (= "L" (str.at var37 465)))
(assert (= "8" (str.at var27 707)))
(assert (= "7" (str.at var1 863)))
(assert (= "*" (str.at var55 709)))
(assert (= "&" (str.at var3 556)))
(assert (= "W" (str.at var49 674)))
(assert (= "I" (str.at var40 801)))
(assert (= "%" (str.at var27 793)))
(assert (= "]" (str.at var35 94)))
(assert (= "*" (str.at var14 701)))
(assert (= "Z" (str.at var49 497)))
(assert (= "*" (str.at var44 537)))
(assert (= "b" (str.at var38 531)))
(assert (= ">" (str.at var10 726)))
(assert (= "1" (str.at var21 613)))
(assert (= "." (str.at var30 487)))
(assert (= "n" (str.at var12 159)))
(assert (= "U" (str.at var34 946)))
(assert (= """" (str.at var52 865)))
(assert (= "F" (str.at var29 56)))
(assert (= "'" (str.at var28 97)))
(assert (= "V" (str.at var58 38)))
(assert (= "r" (str.at var1 85)))
(assert (= "6" (str.at var10 837)))
(assert (= "c" (str.at var19 905)))
(assert (= "6" (str.at var23 376)))
(assert (= "S" (str.at var11 654)))
(assert (= "&" (str.at var28 326)))
(assert (= "f" (str.at var43 390)))
(assert (= "c" (str.at var33 398)))
(assert (= "o" (str.at var17 136)))
(assert (= "#" (str.at var23 32)))
(assert (= "|" (str.at var26 678)))
(assert (= "_" (str.at var52 634)))
(assert (= "@" (str.at var58 181)))
(assert (= "p" (str.at var47 804)))
(assert (= "t" (str.at var23 639)))
(assert (= "!" (str.at var24 228)))
(assert (= "u" (str.at var52 555)))
(assert (= "6" (str.at var28 806)))
(assert (= "t" (str.at var33 615)))
(assert (= "f" (str.at var50 728)))
(assert (= "q" (str.at var24 7)))
(assert (= "D" (str.at var23 689)))
(assert (= "8" (str.at var0 81)))
(assert (= "r" (str.at var43 155)))
(assert (= "^" (str.at var27 18)))
(assert (= "h" (str.at var27 311)))
(assert (= "f" (str.at var27 955)))
(assert (= "T" (str.at var23 495)))
(assert (= "_" (str.at var10 766)))
(assert (= "n" (str.at var37 931)))
(assert (= ">" (str.at var21 415)))
(assert (= "B" (str.at var3 596)))
(assert (= "l" (str.at var36 359)))
(assert (= "+" (str.at var38 830)))
(assert (= "P" (str.at var55 121)))
(assert (= "2" (str.at var23 465)))
(assert (= "E" (str.at var6 595)))
(assert (= "$" (str.at var20 630)))
(assert (= "]" (str.at var26 266)))
(assert (= "q" (str.at var32 131)))
(assert (= ")" (str.at var3 79)))
(assert (= "`" (str.at var41 151)))
(assert (= "|" (str.at var22 766)))
(assert (= "s" (str.at var52 631)))
(assert (= "?" (str.at var13 61)))
(assert (= "m" (str.at var13 870)))
(assert (= "<" (str.at var0 272)))
(assert (= "}" (str.at var23 945)))
(assert (= "T" (str.at var28 260)))
(assert (= "M" (str.at var15 127)))
(assert (= "u" (str.at var37 842)))
(assert (= "n" (str.at var36 661)))
(assert (= ";" (str.at var30 562)))
(assert (= "!" (str.at var26 854)))
(assert (= "L" (str.at var14 621)))
(assert (= "q" (str.at var0 914)))
(assert (= "r" (str.at var7 997)))
(assert (= ")" (str.at var0 988)))
(assert (= "<" (str.at var56 434)))
(assert (= "\\" (str.at var15 234)))
(assert (= "," (str.at var3 262)))
(assert (= "i" (str.at var5 82)))
(assert (= "y" (str.at var3 17)))
(assert (= """" (str.at var6 544)))
(assert (= "h" (str.at var37 1)))
(assert (= """" (str.at var60 471)))
(assert (= "d" (str.at var0 357)))
(assert (= "+" (str.at var35 377)))
(assert (= "F" (str.at var5 273)))
(assert (= """" (str.at var35 617)))
(assert (= "E" (str.at var46 601)))
(assert (= "i" (str.at var52 448)))
(assert (= "(" (str.at var16 735)))
(assert (= "8" (str.at var57 986)))
(assert (= "*" (str.at var4 583)))
(assert (= "U" (str.at var56 689)))
(assert (= "3" (str.at var53 231)))
(assert (= "x" (str.at var56 660)))
(assert (= "?" (str.at var21 362)))
(assert (= "1" (str.at var20 933)))
(assert (= ";" (str.at var20 559)))
(assert (= "H" (str.at var5 442)))
(assert (= "H" (str.at var8 658)))
(assert (= "6" (str.at var55 885)))
(assert (= "4" (str.at var60 286)))
(assert (= "Z" (str.at var11 295)))
(assert (= "x" (str.at var44 678)))
(assert (= "'" (str.at var48 422)))
(assert (= "2" (str.at var43 299)))
(assert (= ":" (str.at var49 470)))
(assert (= "c" (str.at var47 586)))
(assert (= "A" (str.at var6 396)))
(assert (= "B" (str.at var5 201)))
(assert (= "c" (str.at var39 515)))
(assert (= "s" (str.at var47 695)))
(assert (= "q" (str.at var59 970)))
(assert (= "y" (str.at var49 552)))
(assert (= "!" (str.at var49 809)))
(assert (= "7" (str.at var17 351)))
(assert (= "2" (str.at var32 987)))
(assert (= "D" (str.at var18 468)))
(assert (= "<" (str.at var38 98)))
(assert (= "L" (str.at var47 136)))
(assert (= "=" (str.at var53 711)))
(assert (= "=" (str.at var47 386)))
(assert (= "(" (str.at var42 993)))
(assert (= "E" (str.at var6 506)))
(assert (= "Y" (str.at var5 153)))
(assert (= "F" (str.at var2 101)))
(assert (= "<" (str.at var10 905)))
(assert (= "1" (str.at var44 211)))
(assert (= "$" (str.at var32 944)))
(assert (= "B" (str.at var46 448)))
(assert (= "|" (str.at var22 822)))
(assert (= "+" (str.at var4 699)))
(assert (= "7" (str.at var18 515)))
(assert (= "G" (str.at var9 291)))
(assert (= "x" (str.at var8 415)))
(assert (= "n" (str.at var50 898)))
(assert (= "|" (str.at var38 737)))
(assert (= "," (str.at var58 450)))
(assert (= "," (str.at var33 586)))
(assert (= "(" (str.at var44 894)))
(assert (= "'" (str.at var20 591)))
(assert (= "M" (str.at var18 792)))
(assert (= "'" (str.at var18 755)))
(assert (= "x" (str.at var2 409)))
(assert (= "{" (str.at var45 132)))
(assert (= "U" (str.at var25 895)))
(assert (= "[" (str.at var22 308)))
(assert (= "?" (str.at var59 420)))
(assert (= "'" (str.at var40 324)))
(assert (= "D" (str.at var14 704)))
(assert (= "#" (str.at var25 129)))
(assert (= ";" (str.at var35 963)))
(assert (= "I" (str.at var32 685)))
(assert (= "_" (str.at var58 305)))
(assert (= "-" (str.at var0 688)))
(assert (= "*" (str.at var5 440)))
(assert (= "E" (str.at var20 272)))
(assert (= "c" (str.at var40 814)))
(assert (= "^" (str.at var14 223)))
(assert (= "X" (str.at var28 241)))
(assert (= "e" (str.at var31 588)))
(assert (= "j" (str.at var26 834)))
(assert (= "&" (str.at var12 370)))
(assert (= "|" (str.at var35 745)))
(assert (= "p" (str.at var25 667)))
(assert (= "7" (str.at var44 209)))
(assert (= "Q" (str.at var28 492)))
(assert (= "C" (str.at var29 696)))
(assert (= "<" (str.at var21 807)))
(assert (= "x" (str.at var13 112)))
(assert (= "G" (str.at var2 546)))
(assert (= "E" (str.at var2 704)))
(assert (= "z" (str.at var3 158)))
(assert (= "H" (str.at var33 260)))
(assert (= "I" (str.at var44 989)))
(assert (= "i" (str.at var36 944)))
(assert (= "o" (str.at var51 699)))
(assert (= "C" (str.at var44 252)))
(assert (= "n" (str.at var32 744)))
(assert (= "%" (str.at var41 436)))
(assert (= "X" (str.at var2 791)))
(assert (= "B" (str.at var19 343)))
(assert (= "w" (str.at var12 762)))
(assert (= "M" (str.at var8 419)))
(assert (= "~" (str.at var49 681)))
(assert (= "N" (str.at var46 807)))
(assert (= "9" (str.at var53 139)))
(assert (= "=" (str.at var2 626)))
(assert (= "H" (str.at var48 661)))
(assert (= "4" (str.at var8 871)))
(assert (= "," (str.at var12 685)))
(assert (= "K" (str.at var51 523)))
(assert (= "y" (str.at var54 563)))
(assert (= "S" (str.at var46 766)))
(assert (= "P" (str.at var35 576)))
(assert (= "'" (str.at var6 532)))
(assert (= "0" (str.at var0 677)))
(assert (= "d" (str.at var50 19)))
(assert (= ":" (str.at var60 610)))
(assert (= "5" (str.at var45 975)))
(assert (= "W" (str.at var59 835)))
(assert (= "B" (str.at var23 705)))
(assert (= "C" (str.at var23 449)))
(assert (= "_" (str.at var12 425)))
(assert (= "H" (str.at var52 797)))
(assert (= "[" (str.at var42 447)))
(assert (= "u" (str.at var30 271)))
(assert (= "A" (str.at var24 405)))
(assert (= "}" (str.at var30 340)))
(assert (= "F" (str.at var38 529)))
(assert (= "6" (str.at var10 871)))
(assert (= "l" (str.at var0 248)))
(assert (= "," (str.at var37 639)))
(assert (= "w" (str.at var2 271)))
(assert (= "<" (str.at var4 195)))
(assert (= "9" (str.at var14 13)))
(assert (= "@" (str.at var6 350)))
(assert (= "," (str.at var27 201)))
(assert (= "V" (str.at var55 79)))
(assert (= "+" (str.at var38 200)))
(assert (= "G" (str.at var16 512)))
(assert (= "O" (str.at var0 577)))
(assert (= "j" (str.at var42 204)))
(assert (= "t" (str.at var55 663)))
(assert (= "r" (str.at var24 306)))
(assert (= "C" (str.at var54 847)))
(assert (= "e" (str.at var24 883)))
(assert (= "Y" (str.at var34 789)))
(assert (= "4" (str.at var5 625)))
(assert (= "k" (str.at var55 116)))
(check-sat)
(get-model)